GLPSOL--GLPK LP/MIP Solver 5.0
Parameter(s) specified in the command line:
 --lp ../modeles/10_249.lp --log 10_249.log
Reading problem data from '../modeles/10_249.lp'...
2531 rows, 5000 columns, 17480 non-zeros
2490 integer variables, all of which are binary
7547 lines were read
GLPK Integer Optimizer 5.0
2531 rows, 5000 columns, 17480 non-zeros
2490 integer variables, all of which are binary
Preprocessing...
2460 constraint coefficient(s) were reduced
2531 rows, 4990 columns, 17470 non-zeros
2490 integer variables, all of which are binary
Scaling...
 A: min|aij| =  6.452e-05  max|aij| =  4.000e+00  ratio =  6.200e+04
GM: min|aij| =  6.337e-02  max|aij| =  1.578e+01  ratio =  2.490e+02
EQ: min|aij| =  4.016e-03  max|aij| =  1.000e+00  ratio =  2.490e+02
2N: min|aij| =  3.906e-03  max|aij| =  1.773e+00  ratio =  4.539e+02
Constructing initial basis...
Size of triangular part is 2531
Solving LP relaxation...
GLPK Simplex Optimizer 5.0
2531 rows, 4990 columns, 17470 non-zeros
      0: obj =   2.000000000e+01 inf =   4.950e+01 (21)
    149: obj =   4.996854839e-01 inf =   0.000e+00 (0)
*   474: obj =  -3.161671687e+00 inf =   1.023e-14 (0)
OPTIMAL LP SOLUTION FOUND
Integer optimization begins...
Long-step dual simplex will be used
+   474: mip =     not found yet >=              -inf        (1; 0)
+   637: >>>>>  -3.161671687e+00 >=  -3.161671687e+00   0.0% (162; 0)
+   637: mip =  -3.161671687e+00 >=     tree is empty   0.0% (0; 323)
INTEGER OPTIMAL SOLUTION FOUND
Time used:   0.7 secs
Memory used: 7.3 Mb (7611318 bytes)
